experiments/sat_smt/run/sat-r/results/louise.res
solved=true
solvingTime=52.31287384033203125
nActions=13