experiments/sat_smt/run/sat-r/results/louise.out
Timesteps: 1
s UNSATISFIABLE
real 0.12
user 0.01
sys 0.00
Timesteps: 2
s UNSATISFIABLE
real 0.09
user 0.02
sys 0.00
Timesteps: 3
s UNSATISFIABLE
real 0.18
user 0.05
sys 0.00
Timesteps: 4
s UNSATISFIABLE
real 0.14
user 0.07
sys 0.00
Timesteps: 5
s UNSATISFIABLE
real 0.28
user 0.21
sys 0.01
Timesteps: 6
s UNSATISFIABLE
real 0.50
user 0.40
sys 0.01
Timesteps: 7
s UNSATISFIABLE
real 1.56
user 1.46
sys 0.01
Timesteps: 8
s UNSATISFIABLE
real 3.09
user 2.96
sys 0.01
Timesteps: 9
s UNSATISFIABLE
real 4.43
user 4.22
sys 0.01
Timesteps: 10
s UNSATISFIABLE
real 5.88
user 5.65
sys 0.02
Timesteps: 11
s UNSATISFIABLE
real 7.77
user 7.55
sys 0.03
Timesteps: 12
s UNSATISFIABLE
real 14.18
user 13.67
sys 0.05
Timesteps: 13
s SATISFIABLE
real 14.59
user 14.03
sys 0.03
